ICHARG = 11
ISTART = 2

EDIFF = 1E-7
EDIFFG = -1E-3
ENCUT = 400
IBRION = 1
NSW = 0
ISIF = 3
ISMEAR = 0
LCHARG = .TRUE.
LORBIT = 11
LWAVE = .FALSE.
NEDOS = 5000
NELM = 500
NPAR = 4
NSW = 500
PREC = Accurate

LWANNIER90=.TRUE.
LWRITE_MMN_AMN=.TRUE.

NBANDS = 60

LSORBIT       = .TRUE.

ISYM = 0