t.cif -- Reduced via b,-a,-1/3a+1/3b+1/3c
1.0
     4.1080000000       0.0000000000       0.0000000000
     2.0540000000       3.5576323587464733       0.0000000000
     2.0540000000       1.1858774529154912       9.3137614834
Bi Se
2 3
Direct
     0.598810000     0.598810000     0.703569             
     0.401190000     0.401190000     0.29642999999999997  
     0.000000000     0.000000000     0.5                  
     0.790680000     0.790680000     0.12795900000000016  
     0.209320000     0.209320000     0.8720399999999999   







