bulk@mp_7991                            
   1.00000000000000     
     1.2554796795058252   -2.1745545631202692    0.0000000000000000
     1.2554796795058252    2.1745545631202692    0.0000000000000000
     0.0000000000000000    0.0000000000000000    7.0034135918059510
   B    N 
     2     2
Direct
  0.6666669999999968  0.3333330000000032  0.2500000000000000
  0.3333330000000032  0.6666669999999968  0.7500000000000000
  0.0000000000000000  0.0000000000000000  0.2500000000000000
  0.0000000000000000  0.0000000000000000  0.7500000000000000
 
  0.00000000E+00  0.00000000E+00  0.00000000E+00
  0.00000000E+00  0.00000000E+00  0.00000000E+00
  0.00000000E+00  0.00000000E+00  0.00000000E+00
  0.00000000E+00  0.00000000E+00  0.00000000E+00
