#restart           = plot

write_hr = true

#bands_plot        = true
#bands_plot_project = 1
#bands_plot_format = xmgr

guiding_centres = TRUE

kmesh_tol=0.0000001

num_bands         = 30
num_wann          = 16
#exclude_bands     = 0

dis_froz_max      = 7.0
dis_froz_min      = -100.0

dis_num_iter      = 100
dis_mix_ratio     = 0.5

num_iter          = 100
num_print_cycles  = 50


begin projections
B:s,p
N:s,p
end projections


begin unit_cell_cart
     1.2554797    -2.1745546     0.0000000
     1.2554797     2.1745546     0.0000000
     0.0000000     0.0000000     7.0034136
end unit_cell_cart

begin atoms_cart
B        1.2554797    -0.7248530     1.7508534
B        1.2554797     0.7248530     5.2525602
N        0.0000000     0.0000000     1.7508534
N        0.0000000     0.0000000     5.2525602
end atoms_cart

mp_grid =     9     9     4

begin kpoints
      0.000000000000      0.000000000000      0.000000000000
      0.111111111111      0.000000000000      0.000000000000
      0.222222222222     -0.000000000000      0.000000000000
      0.333333333333     -0.000000000000      0.000000000000
      0.444444444444     -0.000000000000      0.000000000000
     -0.444444444444      0.000000000000      0.000000000000
     -0.333333333333      0.000000000000      0.000000000000
     -0.222222222222      0.000000000000      0.000000000000
     -0.111111111111     -0.000000000000      0.000000000000
      0.000000000000      0.111111111111      0.000000000000
      0.111111111111      0.111111111111      0.000000000000
      0.222222222222      0.111111111111      0.000000000000
      0.333333333333      0.111111111111      0.000000000000
      0.444444444444      0.111111111111      0.000000000000
     -0.444444444444      0.111111111111      0.000000000000
     -0.333333333333      0.111111111111      0.000000000000
     -0.222222222222      0.111111111111      0.000000000000
     -0.111111111111      0.111111111111      0.000000000000
     -0.000000000000      0.222222222222      0.000000000000
      0.111111111111      0.222222222222      0.000000000000
      0.222222222222      0.222222222222      0.000000000000
      0.333333333333      0.222222222222      0.000000000000
      0.444444444444      0.222222222222      0.000000000000
     -0.444444444444      0.222222222222      0.000000000000
     -0.333333333333      0.222222222222      0.000000000000
     -0.222222222222      0.222222222222      0.000000000000
     -0.111111111111      0.222222222222      0.000000000000
     -0.000000000000      0.333333333333      0.000000000000
      0.111111111111      0.333333333333      0.000000000000
      0.222222222222      0.333333333333      0.000000000000
      0.333333333333      0.333333333333      0.000000000000
      0.444444444444      0.333333333333      0.000000000000
     -0.444444444444      0.333333333333      0.000000000000
     -0.333333333333      0.333333333333      0.000000000000
     -0.222222222222      0.333333333333      0.000000000000
     -0.111111111111      0.333333333333      0.000000000000
     -0.000000000000      0.444444444444      0.000000000000
      0.111111111111      0.444444444444      0.000000000000
      0.222222222222      0.444444444444      0.000000000000
      0.333333333333      0.444444444444      0.000000000000
      0.444444444444      0.444444444444      0.000000000000
     -0.444444444444      0.444444444444      0.000000000000
     -0.333333333333      0.444444444444      0.000000000000
     -0.222222222222      0.444444444444      0.000000000000
     -0.111111111111      0.444444444444      0.000000000000
      0.000000000000     -0.444444444444      0.000000000000
      0.111111111111     -0.444444444444      0.000000000000
      0.222222222222     -0.444444444444      0.000000000000
      0.333333333333     -0.444444444444      0.000000000000
      0.444444444444     -0.444444444444      0.000000000000
     -0.444444444444     -0.444444444444      0.000000000000
     -0.333333333333     -0.444444444444      0.000000000000
     -0.222222222222     -0.444444444444      0.000000000000
     -0.111111111111     -0.444444444444      0.000000000000
      0.000000000000     -0.333333333333      0.000000000000
      0.111111111111     -0.333333333333      0.000000000000
      0.222222222222     -0.333333333333      0.000000000000
      0.333333333333     -0.333333333333      0.000000000000
      0.444444444444     -0.333333333333      0.000000000000
     -0.444444444444     -0.333333333333      0.000000000000
     -0.333333333333     -0.333333333333      0.000000000000
     -0.222222222222     -0.333333333333      0.000000000000
     -0.111111111111     -0.333333333333      0.000000000000
      0.000000000000     -0.222222222222      0.000000000000
      0.111111111111     -0.222222222222      0.000000000000
      0.222222222222     -0.222222222222      0.000000000000
      0.333333333333     -0.222222222222      0.000000000000
      0.444444444444     -0.222222222222      0.000000000000
     -0.444444444444     -0.222222222222      0.000000000000
     -0.333333333333     -0.222222222222      0.000000000000
     -0.222222222222     -0.222222222222      0.000000000000
     -0.111111111111     -0.222222222222      0.000000000000
     -0.000000000000     -0.111111111111      0.000000000000
      0.111111111111     -0.111111111111      0.000000000000
      0.222222222222     -0.111111111111      0.000000000000
      0.333333333333     -0.111111111111      0.000000000000
      0.444444444444     -0.111111111111      0.000000000000
     -0.444444444444     -0.111111111111      0.000000000000
     -0.333333333333     -0.111111111111      0.000000000000
     -0.222222222222     -0.111111111111      0.000000000000
     -0.111111111111     -0.111111111111      0.000000000000
      0.000000000000      0.000000000000      0.250000000000
      0.111111111111      0.000000000000      0.250000000000
      0.222222222222     -0.000000000000      0.250000000000
      0.333333333333     -0.000000000000      0.250000000000
      0.444444444444     -0.000000000000      0.250000000000
     -0.444444444444      0.000000000000      0.250000000000
     -0.333333333333      0.000000000000      0.250000000000
     -0.222222222222      0.000000000000      0.250000000000
     -0.111111111111     -0.000000000000      0.250000000000
      0.000000000000      0.111111111111      0.250000000000
      0.111111111111      0.111111111111      0.250000000000
      0.222222222222      0.111111111111      0.250000000000
      0.333333333333      0.111111111111      0.250000000000
      0.444444444444      0.111111111111      0.250000000000
     -0.444444444444      0.111111111111      0.250000000000
     -0.333333333333      0.111111111111      0.250000000000
     -0.222222222222      0.111111111111      0.250000000000
     -0.111111111111      0.111111111111      0.250000000000
     -0.000000000000      0.222222222222      0.250000000000
      0.111111111111      0.222222222222      0.250000000000
      0.222222222222      0.222222222222      0.250000000000
      0.333333333333      0.222222222222      0.250000000000
      0.444444444444      0.222222222222      0.250000000000
     -0.444444444444      0.222222222222      0.250000000000
     -0.333333333333      0.222222222222      0.250000000000
     -0.222222222222      0.222222222222      0.250000000000
     -0.111111111111      0.222222222222      0.250000000000
     -0.000000000000      0.333333333333      0.250000000000
      0.111111111111      0.333333333333      0.250000000000
      0.222222222222      0.333333333333      0.250000000000
      0.333333333333      0.333333333333      0.250000000000
      0.444444444444      0.333333333333      0.250000000000
     -0.444444444444      0.333333333333      0.250000000000
     -0.333333333333      0.333333333333      0.250000000000
     -0.222222222222      0.333333333333      0.250000000000
     -0.111111111111      0.333333333333      0.250000000000
     -0.000000000000      0.444444444444      0.250000000000
      0.111111111111      0.444444444444      0.250000000000
      0.222222222222      0.444444444444      0.250000000000
      0.333333333333      0.444444444444      0.250000000000
      0.444444444444      0.444444444444      0.250000000000
     -0.444444444444      0.444444444444      0.250000000000
     -0.333333333333      0.444444444444      0.250000000000
     -0.222222222222      0.444444444444      0.250000000000
     -0.111111111111      0.444444444444      0.250000000000
      0.000000000000     -0.444444444444      0.250000000000
      0.111111111111     -0.444444444444      0.250000000000
      0.222222222222     -0.444444444444      0.250000000000
      0.333333333333     -0.444444444444      0.250000000000
      0.444444444444     -0.444444444444      0.250000000000
     -0.444444444444     -0.444444444444      0.250000000000
     -0.333333333333     -0.444444444444      0.250000000000
     -0.222222222222     -0.444444444444      0.250000000000
     -0.111111111111     -0.444444444444      0.250000000000
      0.000000000000     -0.333333333333      0.250000000000
      0.111111111111     -0.333333333333      0.250000000000
      0.222222222222     -0.333333333333      0.250000000000
      0.333333333333     -0.333333333333      0.250000000000
      0.444444444444     -0.333333333333      0.250000000000
     -0.444444444444     -0.333333333333      0.250000000000
     -0.333333333333     -0.333333333333      0.250000000000
     -0.222222222222     -0.333333333333      0.250000000000
     -0.111111111111     -0.333333333333      0.250000000000
      0.000000000000     -0.222222222222      0.250000000000
      0.111111111111     -0.222222222222      0.250000000000
      0.222222222222     -0.222222222222      0.250000000000
      0.333333333333     -0.222222222222      0.250000000000
      0.444444444444     -0.222222222222      0.250000000000
     -0.444444444444     -0.222222222222      0.250000000000
     -0.333333333333     -0.222222222222      0.250000000000
     -0.222222222222     -0.222222222222      0.250000000000
     -0.111111111111     -0.222222222222      0.250000000000
     -0.000000000000     -0.111111111111      0.250000000000
      0.111111111111     -0.111111111111      0.250000000000
      0.222222222222     -0.111111111111      0.250000000000
      0.333333333333     -0.111111111111      0.250000000000
      0.444444444444     -0.111111111111      0.250000000000
     -0.444444444444     -0.111111111111      0.250000000000
     -0.333333333333     -0.111111111111      0.250000000000
     -0.222222222222     -0.111111111111      0.250000000000
     -0.111111111111     -0.111111111111      0.250000000000
      0.000000000000      0.000000000000      0.500000000000
      0.111111111111      0.000000000000      0.500000000000
      0.222222222222     -0.000000000000      0.500000000000
      0.333333333333     -0.000000000000      0.500000000000
      0.444444444444     -0.000000000000      0.500000000000
     -0.444444444444      0.000000000000      0.500000000000
     -0.333333333333      0.000000000000      0.500000000000
     -0.222222222222      0.000000000000      0.500000000000
     -0.111111111111     -0.000000000000      0.500000000000
      0.000000000000      0.111111111111      0.500000000000
      0.111111111111      0.111111111111      0.500000000000
      0.222222222222      0.111111111111      0.500000000000
      0.333333333333      0.111111111111      0.500000000000
      0.444444444444      0.111111111111      0.500000000000
     -0.444444444444      0.111111111111      0.500000000000
     -0.333333333333      0.111111111111      0.500000000000
     -0.222222222222      0.111111111111      0.500000000000
     -0.111111111111      0.111111111111      0.500000000000
     -0.000000000000      0.222222222222      0.500000000000
      0.111111111111      0.222222222222      0.500000000000
      0.222222222222      0.222222222222      0.500000000000
      0.333333333333      0.222222222222      0.500000000000
      0.444444444444      0.222222222222      0.500000000000
     -0.444444444444      0.222222222222      0.500000000000
     -0.333333333333      0.222222222222      0.500000000000
     -0.222222222222      0.222222222222      0.500000000000
     -0.111111111111      0.222222222222      0.500000000000
     -0.000000000000      0.333333333333      0.500000000000
      0.111111111111      0.333333333333      0.500000000000
      0.222222222222      0.333333333333      0.500000000000
      0.333333333333      0.333333333333      0.500000000000
      0.444444444444      0.333333333333      0.500000000000
     -0.444444444444      0.333333333333      0.500000000000
     -0.333333333333      0.333333333333      0.500000000000
     -0.222222222222      0.333333333333      0.500000000000
     -0.111111111111      0.333333333333      0.500000000000
     -0.000000000000      0.444444444444      0.500000000000
      0.111111111111      0.444444444444      0.500000000000
      0.222222222222      0.444444444444      0.500000000000
      0.333333333333      0.444444444444      0.500000000000
      0.444444444444      0.444444444444      0.500000000000
     -0.444444444444      0.444444444444      0.500000000000
     -0.333333333333      0.444444444444      0.500000000000
     -0.222222222222      0.444444444444      0.500000000000
     -0.111111111111      0.444444444444      0.500000000000
      0.000000000000     -0.444444444444      0.500000000000
      0.111111111111     -0.444444444444      0.500000000000
      0.222222222222     -0.444444444444      0.500000000000
      0.333333333333     -0.444444444444      0.500000000000
      0.444444444444     -0.444444444444      0.500000000000
     -0.444444444444     -0.444444444444      0.500000000000
     -0.333333333333     -0.444444444444      0.500000000000
     -0.222222222222     -0.444444444444      0.500000000000
     -0.111111111111     -0.444444444444      0.500000000000
      0.000000000000     -0.333333333333      0.500000000000
      0.111111111111     -0.333333333333      0.500000000000
      0.222222222222     -0.333333333333      0.500000000000
      0.333333333333     -0.333333333333      0.500000000000
      0.444444444444     -0.333333333333      0.500000000000
     -0.444444444444     -0.333333333333      0.500000000000
     -0.333333333333     -0.333333333333      0.500000000000
     -0.222222222222     -0.333333333333      0.500000000000
     -0.111111111111     -0.333333333333      0.500000000000
      0.000000000000     -0.222222222222      0.500000000000
      0.111111111111     -0.222222222222      0.500000000000
      0.222222222222     -0.222222222222      0.500000000000
      0.333333333333     -0.222222222222      0.500000000000
      0.444444444444     -0.222222222222      0.500000000000
     -0.444444444444     -0.222222222222      0.500000000000
     -0.333333333333     -0.222222222222      0.500000000000
     -0.222222222222     -0.222222222222      0.500000000000
     -0.111111111111     -0.222222222222      0.500000000000
     -0.000000000000     -0.111111111111      0.500000000000
      0.111111111111     -0.111111111111      0.500000000000
      0.222222222222     -0.111111111111      0.500000000000
      0.333333333333     -0.111111111111      0.500000000000
      0.444444444444     -0.111111111111      0.500000000000
     -0.444444444444     -0.111111111111      0.500000000000
     -0.333333333333     -0.111111111111      0.500000000000
     -0.222222222222     -0.111111111111      0.500000000000
     -0.111111111111     -0.111111111111      0.500000000000
      0.000000000000      0.000000000000     -0.250000000000
      0.111111111111      0.000000000000     -0.250000000000
      0.222222222222     -0.000000000000     -0.250000000000
      0.333333333333     -0.000000000000     -0.250000000000
      0.444444444444     -0.000000000000     -0.250000000000
     -0.444444444444      0.000000000000     -0.250000000000
     -0.333333333333      0.000000000000     -0.250000000000
     -0.222222222222      0.000000000000     -0.250000000000
     -0.111111111111     -0.000000000000     -0.250000000000
      0.000000000000      0.111111111111     -0.250000000000
      0.111111111111      0.111111111111     -0.250000000000
      0.222222222222      0.111111111111     -0.250000000000
      0.333333333333      0.111111111111     -0.250000000000
      0.444444444444      0.111111111111     -0.250000000000
     -0.444444444444      0.111111111111     -0.250000000000
     -0.333333333333      0.111111111111     -0.250000000000
     -0.222222222222      0.111111111111     -0.250000000000
     -0.111111111111      0.111111111111     -0.250000000000
     -0.000000000000      0.222222222222     -0.250000000000
      0.111111111111      0.222222222222     -0.250000000000
      0.222222222222      0.222222222222     -0.250000000000
      0.333333333333      0.222222222222     -0.250000000000
      0.444444444444      0.222222222222     -0.250000000000
     -0.444444444444      0.222222222222     -0.250000000000
     -0.333333333333      0.222222222222     -0.250000000000
     -0.222222222222      0.222222222222     -0.250000000000
     -0.111111111111      0.222222222222     -0.250000000000
     -0.000000000000      0.333333333333     -0.250000000000
      0.111111111111      0.333333333333     -0.250000000000
      0.222222222222      0.333333333333     -0.250000000000
      0.333333333333      0.333333333333     -0.250000000000
      0.444444444444      0.333333333333     -0.250000000000
     -0.444444444444      0.333333333333     -0.250000000000
     -0.333333333333      0.333333333333     -0.250000000000
     -0.222222222222      0.333333333333     -0.250000000000
     -0.111111111111      0.333333333333     -0.250000000000
     -0.000000000000      0.444444444444     -0.250000000000
      0.111111111111      0.444444444444     -0.250000000000
      0.222222222222      0.444444444444     -0.250000000000
      0.333333333333      0.444444444444     -0.250000000000
      0.444444444444      0.444444444444     -0.250000000000
     -0.444444444444      0.444444444444     -0.250000000000
     -0.333333333333      0.444444444444     -0.250000000000
     -0.222222222222      0.444444444444     -0.250000000000
     -0.111111111111      0.444444444444     -0.250000000000
      0.000000000000     -0.444444444444     -0.250000000000
      0.111111111111     -0.444444444444     -0.250000000000
      0.222222222222     -0.444444444444     -0.250000000000
      0.333333333333     -0.444444444444     -0.250000000000
      0.444444444444     -0.444444444444     -0.250000000000
     -0.444444444444     -0.444444444444     -0.250000000000
     -0.333333333333     -0.444444444444     -0.250000000000
     -0.222222222222     -0.444444444444     -0.250000000000
     -0.111111111111     -0.444444444444     -0.250000000000
      0.000000000000     -0.333333333333     -0.250000000000
      0.111111111111     -0.333333333333     -0.250000000000
      0.222222222222     -0.333333333333     -0.250000000000
      0.333333333333     -0.333333333333     -0.250000000000
      0.444444444444     -0.333333333333     -0.250000000000
     -0.444444444444     -0.333333333333     -0.250000000000
     -0.333333333333     -0.333333333333     -0.250000000000
     -0.222222222222     -0.333333333333     -0.250000000000
     -0.111111111111     -0.333333333333     -0.250000000000
      0.000000000000     -0.222222222222     -0.250000000000
      0.111111111111     -0.222222222222     -0.250000000000
      0.222222222222     -0.222222222222     -0.250000000000
      0.333333333333     -0.222222222222     -0.250000000000
      0.444444444444     -0.222222222222     -0.250000000000
     -0.444444444444     -0.222222222222     -0.250000000000
     -0.333333333333     -0.222222222222     -0.250000000000
     -0.222222222222     -0.222222222222     -0.250000000000
     -0.111111111111     -0.222222222222     -0.250000000000
     -0.000000000000     -0.111111111111     -0.250000000000
      0.111111111111     -0.111111111111     -0.250000000000
      0.222222222222     -0.111111111111     -0.250000000000
      0.333333333333     -0.111111111111     -0.250000000000
      0.444444444444     -0.111111111111     -0.250000000000
     -0.444444444444     -0.111111111111     -0.250000000000
     -0.333333333333     -0.111111111111     -0.250000000000
     -0.222222222222     -0.111111111111     -0.250000000000
     -0.111111111111     -0.111111111111     -0.250000000000
end kpoints
